outputs/case_140.model.txt
advertisement_content_approved_by_company_or_bank = False
license_obtained = True
guarantee_deposit_paid = True
related_insurance_purchased = True
compliance_163_5_applied_165_1 = True
solicitation_handling_executed = True
advertisement_approved = False
solicitation_handling_established = True
internal_control_executed = True
compliance_165_1 = True
compliance_163_7 = True
audit_system_executed = True
penalty = False
internal_control_compliance = True
audit_system_established = True
internal_control_established = True
internal_control_audit_solicitation_compliance = True
management_rule_compliance = True
compliance_163_4_financial_business = True
license_and_insurance_compliance = True